Geographic Exponential Decay
80 42 249 146 80 189 47 41 208 250 149 129 307 252 268 131 314 255 3 105 53 158 4 120 259 46 69 192 51 101 209 248 66 110 263 125 44 233 299 254 315 228 218 19 297 316 17 294 287 83 311 176 58 12 260 170 136 220 145 184 241 116 272 290 239 190 246 296 227 153 81 30 205 93 92 142 37 5 207 106 232
p edge 320 322
e 0 185 12.0
e 1 57 1.0
e 1 0 16.0
e 2 58 7.0
e 2 1 1.0
e 3 273 64.0
e 3 268 66.0
e 3 51 19.0
e 3 2 7.0
e 4 282 80.0
e 4 47 52.0
e 4 143 7.0
e 4 3 99.0
e 5 209 36.0
e 5 117 70.0
e 5 46 39.0
e 5 4 61.0
e 6 184 48.0
e 6 5 57.0
e 7 40 2.0
e 7 6 2.0
e 8 153 76.0
e 8 7 5.0
e 9 62 2.0
e 9 8 3.0
e 10 15 1.0
e 10 9 2.0
e 11 283 1.0
e 11 10 1.0
e 12 253 54.0
e 12 116 19.0
e 12 239 80.0
e 12 11 26.0
e 13 243 2.0
e 13 12 83.0
e 14 123 1.0
e 14 13 1.0
e 16 146 13.0
e 17 199 99.0
e 17 130 19.0
e 17 61 89.0
e 17 14 20.0
e 18 101 67.0
e 18 17 61.0
e 19 207 100.0
e 19 304 81.0
e 19 54 13.0
e 20 135 1.0
e 20 18 6.0
e 21 201 1.0
e 21 20 22.0
e 22 23 6.0
e 22 21 16.0
e 24 31 3.0
e 24 22 1.0
e 25 68 5.0
e 25 24 1.0
e 26 35 1.0
e 26 25 2.0
e 27 34 2.0
e 27 26 1.0
e 28 32 1.0
e 28 27 1.0
e 29 270 11.0
e 29 28 1.0
e 30 33 9.0
e 30 219 68.0
e 30 95 40.0
e 30 29 26.0
e 36 169 1.0
e 36 30 91.0
e 37 38 68.0
e 37 254 47.0
e 37 89 10.0
e 37 36 57.0
e 39 170 10.0
e 39 37 38.0
e 41 190 19.0
e 41 125 81.0
e 41 90 36.0
e 42 44 43.0
e 42 212 31.0
e 42 112 64.0
e 42 39 32.0
e 43 129 21.0
e 43 42 90.0
e 44 216 75.0
e 44 75 4.0
e 45 46 9.0
e 46 84 40.0
e 47 66 68.0
e 47 236 66.0
e 48 124 1.0
e 48 43 1.0
e 49 113 19.0
e 49 48 1.0
e 50 51 90.0
e 51 240 47.0
e 52 119 3.0
e 52 49 21.0
e 53 72 80.0
e 53 205 3.0
e 53 222 48.0
e 55 307 1.0
e 55 52 1.0
e 56 305 6.0
e 56 58 37.0
e 58 308 91.0
e 59 82 6.0
e 59 55 7.0
e 60 316 31.0
e 60 59 14.0
e 63 252 65.0
e 64 285 1.0
e 64 60 9.0
e 65 91 2.0
e 65 64 1.0
e 66 287 61.0
e 66 154 97.0
e 67 79 1.0
e 67 65 2.0
e 69 70 74.0
e 69 80 49.0
e 69 71 55.0
e 69 67 43.0
e 73 155 10.0
e 73 69 64.0
e 74 286 1.0
e 74 73 1.0
e 76 278 3.0
e 76 74 4.0
e 77 291 1.0
e 77 76 6.0
e 78 194 20.0
e 78 287 32.0
e 80 289 40.0
e 80 81 79.0
e 81 258 42.0
e 81 318 53.0
e 83 180 24.0
e 83 125 26.0
e 83 247 75.0
e 85 86 2.0
e 85 77 1.0
e 87 88 2.0
e 87 85 1.0
e 92 167 64.0
e 92 93 94.0
e 92 94 100.0
e 92 87 24.0
e 93 96 49.0
e 93 281 15.0
e 97 223 2.0
e 97 92 91.0
e 98 245 46.0
e 99 100 4.0
e 99 97 1.0
e 101 102 4.0
e 101 103 60.0
e 104 228 35.0
e 104 99 1.0
e 105 106 8.0
e 105 127 70.0
e 105 256 40.0
e 105 104 13.0
e 106 314 39.0
e 106 280 90.0
e 107 301 2.0
e 107 105 62.0
e 108 206 1.0
e 108 107 1.0
e 109 110 33.0
e 110 314 43.0
e 110 271 25.0
e 111 114 8.0
e 111 108 25.0
e 115 172 2.0
e 115 111 25.0
e 116 118 40.0
e 116 120 79.0
e 120 121 18.0
e 120 122 41.0
e 125 131 16.0
e 126 207 78.0
e 128 232 71.0
e 129 166 67.0
e 129 144 80.0
e 131 132 34.0
e 131 168 16.0
e 133 134 1.0
e 133 115 3.0
e 136 299 37.0
e 136 137 13.0
e 136 312 64.0
e 138 184 40.0
e 139 182 2.0
e 139 133 1.0
e 140 141 2.0
e 140 139 2.0
e 142 213 37.0
e 142 145 48.0
e 142 310 99.0
e 145 287 78.0
e 145 146 99.0
e 146 191 54.0
e 147 193 2.0
e 147 140 2.0
e 148 149 78.0
e 148 147 2.0
e 149 296 35.0
e 149 183 77.0
e 150 151 1.0
e 150 148 1.0
e 152 153 70.0
e 153 156 90.0
e 157 158 80.0
e 158 228 4.0
e 158 261 91.0
e 159 160 13.0
e 159 150 1.0
e 161 302 1.0
e 161 159 1.0
e 162 288 5.0
e 162 161 2.0
e 163 164 2.0
e 163 162 1.0
e 165 170 64.0
e 170 299 10.0
e 171 173 2.0
e 171 163 3.0
e 174 175 6.0
e 174 171 4.0
e 176 269 95.0
e 176 177 46.0
e 176 272 75.0
e 178 290 49.0
e 178 174 17.0
e 179 181 1.0
e 179 178 11.0
e 184 244 2.0
e 186 248 65.0
e 187 188 1.0
e 187 179 1.0
e 189 190 32.0
e 189 192 4.0
e 189 259 38.0
e 190 192 32.0
e 192 195 99.0
e 196 197 2.0
e 196 187 1.0
e 198 200 4.0
e 198 196 4.0
e 202 203 1.0
e 202 198 2.0
e 204 277 1.0
e 204 202 17.0
e 205 207 43.0
e 205 208 54.0
e 208 209 60.0
e 208 210 89.0
e 209 211 67.0
e 214 215 4.0
e 214 204 4.0
e 217 218 100.0
e 217 214 3.0
e 218 220 59.0
e 218 221 5.0
e 220 224 21.0
e 220 225 95.0
e 226 228 94.0
e 227 229 20.0
e 227 230 17.0
e 227 231 11.0
e 227 217 69.0
e 232 233 78.0
e 232 248 59.0
e 233 234 18.0
e 233 235 100.0
e 237 238 3.0
e 237 227 14.0
e 239 241 37.0
e 239 242 16.0
e 241 245 37.0
e 241 248 21.0
e 246 249 38.0
e 246 311 1.0
e 246 250 10.0
e 249 250 92.0
e 249 251 88.0
e 250 252 55.0
e 252 307 81.0
e 254 255 66.0
e 254 257 53.0
e 255 259 9.0
e 255 279 83.0
e 259 260 47.0
e 260 262 99.0
e 260 263 77.0
e 263 264 70.0
e 263 265 69.0
e 266 284 2.0
e 266 237 2.0
e 267 297 82.0
e 268 272 77.0
e 268 274 93.0
e 272 275 81.0
e 276 314 99.0
e 290 292 53.0
e 290 293 23.0
e 294 295 71.0
e 294 296 84.0
e 294 297 51.0
e 296 297 8.0
e 298 311 76.0
e 299 300 11.0
e 303 311 22.0
e 306 307 8.0
e 309 313 2.0
e 309 266 1.0
e 315 316 16.0
e 315 317 8.0
e 315 319 78.0
